10J3M/DAT/10J3MNTR-20.dat
10 3
25.3587 18.9923
18.3666 11.1702
23.5855 47.209
14.006 23.5531
26.8306 27.3443
27.7531 29.94
14.3887 13.4922
25.0231 25.5139
26.7135 35.3627
30.745 7.8437
60.1054