10J3M/SOL/10J3MNTR-20.sol
solution status: optimal solution found
objective value:                     67.1721643468022
x#1#2                                               1 	(obj:0)
x#2#1                                               1 	(obj:0)
x#4#1                               0.452462733143408 	(obj:0)
x#5#1                                               1 	(obj:0)
x#6#2                                0.49500534982596 	(obj:0)
x#6#3                                0.50499465017404 	(obj:0)
x#7#3                                               1 	(obj:0)
x#8#2                                               1 	(obj:0)
x#9#1                               0.243260130705272 	(obj:0)
x#9#3                               0.756739869294728 	(obj:0)
x#10#1                              0.297265955596044 	(obj:0)
x#10#2                             0.0992822043437093 	(obj:0)
x#10#3                              0.603451840060249 	(obj:0)
z                                    67.1721643468022 	(obj:1)
